p cnf 98 335
4 2 0
4 3 0
-2 -3 -4 0
7 -5 0
7 -6 0
5 6 -7 0
-8 -4 0
-8 -7 0
4 7 8 0
9 1 0
9 8 0
-1 -8 -9 0
12 -10 0
12 11 0
10 -11 -12 0
-14 13 0
-14 7 0
-13 -7 14 0
-15 12 0
-15 14 0
-12 -14 15 0
17 -10 0
17 11 0
10 -11 -17 0
-18 -16 0
-18 -17 0
16 17 18 0
19 -15 0
19 18 0
15 -18 -19 0
-9 19 -20 0
9 -19 -20 0
-9 -19 20 0
9 19 20 0
-6 -21 -22 0
6 21 -22 0
-6 21 22 0
6 -21 22 0
23 4 0
23 22 0
-4 -22 -23 0
1 -12 -24 0
-1 12 -24 0
1 12 24 0
-1 -12 24 0
25 -7 0
25 -14 0
7 14 -25 0
-24 -25 -26 0
24 25 -26 0
-24 25 26 0
24 -25 26 0
-27 -7 -28 0
27 7 -28 0
-27 7 28 0
27 -7 28 0
-1 14 -29 0
1 -14 -29 0
-1 -14 29 0
1 14 29 0
-28 29 -30 0
28 -29 -30 0
-28 -29 30 0
28 29 30 0
32 31 0
32 10 0
-31 -10 -32 0
33 -30 0
33 32 0
30 -32 -33 0
34 26 0
34 33 0
-26 -33 -34 0
-23 -34 -35 0
23 34 -35 0
-23 34 35 0
23 -34 35 0
-36 16 0
-36 17 0
-16 -17 36 0
21 -6 -37 0
-21 6 -37 0
21 6 37 0
-21 -6 37 0
11 -37 -38 0
-11 37 -38 0
11 37 38 0
-11 -37 38 0
39 5 0
39 31 0
-5 -31 -39 0
40 38 0
40 -39 0
-38 39 -40 0
41 36 0
41 -40 0
-36 40 -41 0
-7 14 -42 0
7 -14 -42 0
-7 -14 42 0
7 14 42 0
42 -17 -43 0
-42 17 -43 0
42 17 43 0
-42 -17 43 0
-44 -7 0
-44 -43 0
7 43 44 0
-45 41 0
-45 44 0
-41 -44 45 0
35 45 -46 0
-35 -45 -46 0
35 -45 46 0
-35 45 46 0
47 7 0
47 -21 0
-7 21 -47 0
48 -7 0
48 -1 0
7 1 -48 0
49 -48 0
49 11 0
48 -11 -49 0
-50 -47 0
-50 49 0
47 -49 50 0
-51 2 0
-51 -43 0
-2 43 51 0
52 -50 0
52 -51 0
50 51 -52 0
53 -46 0
53 52 0
46 -52 -53 0
-54 -6 0
-54 -11 0
6 11 54 0
-56 27 0
-56 -55 0
-27 55 56 0
57 56 0
57 21 0
-56 -21 -57 0
49 57 -58 0
-49 -57 -58 0
49 -57 58 0
-49 57 58 0
59 -10 0
59 -42 0
10 42 -59 0
60 -59 0
60 -22 0
59 22 -60 0
61 58 0
61 60 0
-58 -60 -61 0
62 -54 0
62 61 0
54 -61 -62 0
-63 43 0
-63 -22 0
-43 22 63 0
-64 -63 0
-64 14 0
63 -14 64 0
-65 -3 0
-65 6 0
3 -6 65 0
-5 65 -66 0
5 -65 -66 0
-5 -65 66 0
5 65 66 0
-67 64 0
-67 -66 0
-64 66 67 0
-68 -47 0
-68 28 0
47 -28 68 0
67 -68 -69 0
-67 68 -69 0
67 68 69 0
-67 -68 69 0
70 -62 0
70 69 0
62 -69 -70 0
71 -53 0
71 -70 0
53 70 -71 0
59 25 -72 0
-59 -25 -72 0
59 -25 72 0
-59 25 72 0
73 56 0
73 -72 0
-56 72 -73 0
8 65 -74 0
-8 -65 -74 0
8 -65 74 0
-8 65 74 0
-75 73 0
-75 -74 0
-73 74 75 0
-76 -3 0
-76 -2 0
3 2 76 0
-77 75 0
-77 -76 0
-75 76 77 0
56 -49 -78 0
-56 49 -78 0
56 49 78 0
-56 -49 78 0
-78 -17 -79 0
78 17 -79 0
-78 17 79 0
78 -17 79 0
-80 77 0
-80 79 0
-77 -79 80 0
81 -36 0
81 -36 0
36 -81 0
-82 11 0
-82 -14 0
-11 14 82 0
-83 24 0
-83 82 0
-24 -82 83 0
-84 16 0
-84 -83 0
-16 83 84 0
-85 28 0
-85 -84 0
-28 84 85 0
-3 -85 -86 0
3 85 -86 0
-3 85 86 0
3 -85 86 0
81 -86 -87 0
-81 86 -87 0
81 86 87 0
-81 -86 87 0
88 -48 0
88 31 0
48 -31 -88 0
88 -65 -89 0
-88 65 -89 0
88 65 89 0
-88 -65 89 0
-91 -38 0
-91 -90 0
38 90 91 0
89 91 -92 0
-89 -91 -92 0
89 -91 92 0
-89 91 92 0
-93 87 0
-93 92 0
-87 -92 93 0
-80 -93 -94 0
80 93 -94 0
-80 93 94 0
80 -93 94 0
-95 12 0
-95 37 0
-12 -37 95 0
96 94 0
96 95 0
-94 -95 -96 0
97 -71 0
97 -96 0
71 96 -97 0
-20 97 -98 0
20 -97 -98 0
-20 -97 98 0
20 97 98 0
-70 9 75 -51 -10 0
-61 96 65 0
64 5 -66 -14 81 -23 0
-57 -19 17 0
20 97 72 0
-78 73 -49 44 18 0
-91 64 -89 0
95 -51 0
-72 66 -75 0
-6 -9 91 76 -51 28 0
-66 98 -27 0
38 -59 26 -8 76 0
-96 23 -85 52 67 0
94 9 35 97 45 0
76 24 0
-3 -44 0
-39 31 -15 0
-16 -57 0
-13 -72 43 85 0
42 47 -98 -72 -28 18 0
-93 -71 0
73 -76 -54 -59 0
87 54 -50 38 0
10 -17 46 76 56 0
34 -48 -90 0
7 -81 0
38 3 0
84 92 -3 0
23 -8 0
52 -40 45 73 0
-98 -36 77 -58 38 0
10 60 -93 -54 2 0
12 -61 0
-58 5 -45 0
-62 -94 0
44 -93 42 -91 0
90 18 83 -29 0
82 89 -17 50 -85 0
67 43 -38 -23 84 26 0
-16 -54 7 -80 -57 0
-14 62 34 -58 -68 0
-48 -6 -17 15 0
-8 -20 16 0
5 -1 -84 0
28 -40 37 0
91 -38 0
-35 -63 -72 0
9 61 -94 25 96 -31 0
96 -48 0
46 -60 53 -39 0
-21 -37 17 65 0
49 -23 -75 31 51 0
-85 -88 52 -43 69 -48 0
-1 10 0
-46 44 73 0
-68 26 13 0
98 0
